c 
c G(k,n,p) graph
c graph gen seed     : 25320
c number of vertices : 30
c max number of edges: 500
c number of classes  : 2
c edge density       : 0.600000
c edge probability   : 1.200000
c data structure     : dense
c
c           Graph Stats
c number of vertices  : 30
c nonisolated vertices: 30
c number of edges     : 224
c edge density        : 0.514943
c max degree          : 16
c avg degree          : 14.93
c min degree          : 14
p col 30 224
e 1 3
e 1 4
e 1 5
e 1 14
e 1 15
e 1 17
e 1 18
e 1 23
e 1 24
e 1 26
e 1 28
e 1 29
e 1 30
e 2 6
e 2 7
e 2 8
e 2 9
e 2 10
e 2 11
e 2 12
e 2 13
e 2 16
e 2 19
e 2 20
e 2 21
e 2 22
e 2 25
e 2 27
e 3 4
e 3 5
e 3 14
e 3 15
e 3 17
e 3 18
e 3 23
e 3 24
e 3 26
e 3 28
e 3 29
e 3 30
e 4 5
e 4 14
e 4 15
e 4 17
e 4 18
e 4 23
e 4 24
e 4 26
e 4 28
e 4 29
e 4 30
e 5 14
e 5 15
e 5 17
e 5 18
e 5 23
e 5 24
e 5 26
e 5 28
e 5 29
e 5 30
e 6 7
e 6 8
e 6 9
e 6 10
e 6 11
e 6 12
e 6 13
e 6 16
e 6 19
e 6 20
e 6 21
e 6 22
e 6 25
e 6 27
e 7 8
e 7 9
e 7 10
e 7 11
e 7 12
e 7 13
e 7 16
e 7 19
e 7 20
e 7 21
e 7 22
e 7 25
e 7 27
e 8 9
e 8 10
e 8 11
e 8 12
e 8 13
e 8 16
e 8 19
e 8 20
e 8 21
e 8 22
e 8 25
e 8 27
e 9 10
e 9 11
e 9 12
e 9 13
e 9 16
e 9 19
e 9 20
e 9 21
e 9 22
e 9 25
e 9 27
e 10 11
e 10 12
e 10 13
e 10 16
e 10 19
e 10 20
e 10 21
e 10 22
e 10 25
e 10 27
e 11 12
e 11 13
e 11 16
e 11 19
e 11 20
e 11 21
e 11 22
e 11 25
e 11 27
e 12 13
e 12 16
e 12 19
e 12 20
e 12 21
e 12 22
e 12 25
e 12 27
e 13 16
e 13 19
e 13 20
e 13 21
e 13 22
e 13 25
e 13 27
e 14 15
e 14 17
e 14 18
e 14 23
e 14 24
e 14 26
e 14 28
e 14 29
e 14 30
e 15 17
e 15 18
e 15 23
e 15 24
e 15 26
e 15 28
e 15 29
e 15 30
e 16 19
e 16 20
e 16 21
e 16 22
e 16 25
e 16 27
e 17 18
e 17 23
e 17 24
e 17 26
e 17 28
e 17 29
e 17 30
e 18 23
e 18 24
e 18 26
e 18 28
e 18 29
e 18 30
e 19 20
e 19 21
e 19 22
e 19 25
e 19 27
e 20 21
e 20 22
e 20 25
e 20 27
e 21 22
e 21 25
e 21 27
e 22 25
e 22 27
e 23 24
e 23 26
e 23 28
e 23 29
e 23 30
e 24 26
e 24 28
e 24 29
e 24 30
e 25 27
e 26 28
e 26 29
e 26 30
e 28 29
e 28 30
e 29 30
